2 57 15 43 97 13 
39 67 23 41 22 74 58 
31 88 7 62 10 90 32 70 
27 69 30 51 71 65 66 20 1 
26 24 80 68 
63 64 11 19 48 
42 14 38 86 16 93 96 
95 59 92 98 85 44 91 100 37 
52 82 47 49 36 46 
28 29 78 81 9 35 34 77 
18 8 84 17 60 89 
21 73 72 75 56 25 55 54 4 
83 45 5 61 99 94 6 
87 40 53 
12 76 33 79 3 50 
